p edge 180 540
e 1 66
e 1 90
e 1 105
e 2 40
e 2 72
e 2 99
e 3 60
e 3 66
e 3 159
e 4 55
e 4 112
e 4 177
e 5 49
e 5 55
e 5 82
e 6 14
e 6 18
e 6 52
e 7 65
e 7 86
e 7 161
e 8 62
e 8 137
e 8 139
e 9 29
e 9 90
e 9 126
e 10 124
e 10 125
e 10 137
e 11 34
e 11 107
e 11 128
e 12 2
e 12 25
e 12 179
e 13 9
e 13 124
e 13 130
e 14 8
e 14 40
e 14 115
e 15 24
e 15 76
e 15 101
e 16 10
e 16 53
e 16 139
e 17 82
e 17 116
e 17 180
e 18 66
e 18 101
e 18 102
e 19 63
e 19 98
e 19 142
e 20 58
e 20 68
e 20 177
e 21 51
e 21 72
e 21 101
e 22 31
e 22 106
e 22 134
e 23 2
e 23 37
e 23 90
e 24 25
e 24 42
e 24 66
e 25 173
e 25 178
e 25 180
e 26 9
e 26 42
e 26 85
e 27 41
e 27 62
e 27 178
e 28 54
e 28 109
e 28 127
e 29 20
e 29 87
e 29 122
e 30 42
e 30 61
e 30 139
e 31 72
e 31 95
e 31 178
e 32 81
e 32 103
e 32 147
e 33 24
e 33 77
e 33 153
e 34 84
e 34 89
e 34 166
e 35 39
e 35 80
e 35 173
e 36 14
e 36 43
e 36 106
e 37 52
e 37 59
e 37 117
e 38 74
e 38 89
e 38 145
e 39 20
e 39 128
e 39 167
e 40 17
e 40 19
e 40 154
e 41 34
e 41 109
e 41 164
e 42 33
e 42 103
e 42 172
e 43 75
e 43 84
e 43 147
e 44 88
e 44 160
e 44 180
e 45 92
e 45 103
e 45 123
e 46 2
e 46 70
e 46 152
e 47 35
e 47 147
e 47 156
e 48 36
e 48 60
e 48 136
e 49 11
e 49 51
e 49 119
e 50 43
e 50 45
e 50 76
e 51 70
e 51 119
e 51 150
e 52 86
e 52 121
e 52 174
e 53 10
e 53 31
e 53 80
e 54 82
e 54 100
e 54 156
e 55 17
e 55 107
e 55 165
e 56 52
e 56 138
e 56 170
e 57 12
e 57 21
e 57 93
e 58 85
e 58 97
e 58 158
e 59 48
e 59 116
e 59 143
e 60 22
e 60 65
e 60 132
e 61 27
e 61 37
e 61 118
e 62 91
e 62 146
e 62 177
e 63 7
e 63 121
e 63 178
e 64 16
e 64 51
e 64 116
e 65 37
e 65 59
e 65 88
e 66 58
e 66 59
e 66 65
e 67 16
e 67 46
e 67 51
e 68 90
e 68 98
e 68 138
e 69 57
e 69 132
e 69 150
e 70 32
e 70 110
e 70 166
e 71 15
e 71 37
e 71 47
e 72 11
e 72 20
e 72 121
e 73 94
e 73 98
e 73 121
e 74 56
e 74 110
e 74 115
e 75 30
e 75 34
e 75 131
e 76 24
e 76 118
e 76 135
e 77 68
e 77 94
e 77 160
e 78 91
e 78 93
e 78 169
e 79 4
e 79 60
e 79 113
e 80 79
e 80 96
e 80 127
e 81 114
e 81 135
e 81 136
e 82 1
e 82 26
e 82 144
e 83 6
e 83 59
e 83 164
e 84 9
e 84 150
e 84 157
e 85 19
e 85 92
e 85 135
e 86 10
e 86 96
e 86 170
e 87 64
e 87 110
e 87 172
e 88 72
e 88 161
e 88 164
e 89 53
e 89 79
e 89 82
e 90 16
e 90 92
e 90 164
e 91 4
e 91 98
e 91 104
e 92 7
e 92 149
e 92 154
e 93 47
e 93 100
e 93 165
e 94 44
e 94 59
e 94 112
e 95 5
e 95 103
e 95 137
e 96 11
e 96 36
e 96 83
e 97 4
e 97 37
e 97 144
e 98 21
e 98 89
e 98 142
e 99 72
e 99 110
e 99 110
e 100 29
e 100 35
e 100 48
e 101 18
e 101 65
e 101 95
e 102 60
e 102 97
e 102 108
e 103 149
e 103 168
e 103 179
e 104 74
e 104 129
e 104 143
e 105 54
e 105 93
e 105 129
e 106 96
e 106 113
e 106 122
e 107 47
e 107 151
e 107 171
e 108 7
e 108 13
e 108 116
e 109 33
e 109 38
e 109 174
e 110 12
e 110 50
e 110 67
e 111 3
e 111 28
e 111 113
e 112 18
e 112 50
e 112 99
e 113 7
e 113 101
e 113 149
e 114 39
e 114 92
e 114 166
e 115 67
e 115 108
e 115 117
e 116 52
e 116 53
e 116 178
e 117 44
e 117 94
e 117 137
e 118 7
e 118 160
e 118 167
e 119 35
e 119 122
e 119 134
e 120 46
e 120 98
e 120 136
e 121 48
e 121 120
e 121 168
e 122 13
e 122 70
e 122 71
e 123 78
e 123 128
e 123 162
e 124 19
e 124 77
e 124 151
e 125 121
e 125 158
e 125 178
e 126 29
e 126 30
e 126 175
e 127 27
e 127 129
e 127 162
e 128 2
e 128 13
e 128 45
e 129 7
e 129 103
e 129 169
e 130 61
e 130 93
e 130 175
e 131 41
e 131 91
e 131 171
e 132 47
e 132 91
e 132 177
e 133 34
e 133 56
e 133 78
e 134 9
e 134 56
e 134 155
e 135 63
e 135 72
e 135 105
e 136 54
e 136 111
e 136 119
e 137 2
e 137 118
e 137 148
e 138 40
e 138 60
e 138 163
e 139 8
e 139 9
e 139 65
e 140 43
e 140 54
e 140 58
e 141 3
e 141 58
e 141 135
e 142 39
e 142 52
e 142 70
e 143 116
e 143 120
e 143 135
e 144 12
e 144 14
e 144 41
e 145 5
e 145 38
e 145 131
e 146 8
e 146 131
e 146 137
e 147 92
e 147 95
e 147 107
e 148 23
e 148 85
e 148 127
e 149 54
e 149 56
e 149 130
e 150 6
e 150 31
e 150 127
e 151 116
e 151 137
e 151 176
e 152 57
e 152 117
e 152 169
e 153 36
e 153 74
e 153 177
e 154 24
e 154 134
e 154 139
e 155 56
e 155 129
e 155 133
e 156 68
e 156 73
e 156 113
e 157 69
e 157 135
e 157 171
e 158 142
e 158 152
e 158 175
e 159 64
e 159 79
e 159 107
e 160 16
e 160 56
e 160 155
e 161 34
e 161 68
e 161 163
e 162 31
e 162 35
e 162 146
e 163 12
e 163 145
e 163 170
e 164 1
e 164 57
e 164 68
e 165 70
e 165 139
e 165 146
e 166 14
e 166 58
e 166 164
e 167 3
e 167 22
e 167 95
e 168 41
e 168 98
e 168 103
e 169 84
e 169 173
e 169 179
e 170 106
e 170 141
e 170 179
e 171 66
e 171 114
e 171 121
e 172 39
e 172 128
e 172 140
e 173 62
e 173 108
e 173 162
e 174 86
e 174 89
e 174 153
e 175 26
e 175 115
e 175 125
e 176 64
e 176 80
e 176 102
e 177 20
e 177 23
e 177 119
e 178 32
e 178 38
e 178 98
e 179 26
e 179 135
e 179 174
e 180 68
e 180 77
e 180 151
